rsa_demo_benchmark_output/128/certs/0005.assert.smt2
; benchmark generated from python API
(set-info :status unknown)
(declare-fun p () Int)
(declare-fun q () Int)
(declare-fun n () Int)
(assert
 (= p 9898940004747836521))
(assert
 (= q 17928425082187535807))
(assert
 (= n 177472404268190717070566989075469807447))
(assert
 (= (* p q) n))
(assert
 (> p 1))
(assert
 (> q 1))
(check-sat)
